NAME          ClpDefau  FREE
ROWS
 N  OBJROW
 L  ZMUNI1_PCT
 L  ZMUNI2_PCT
 L  ZMUNI3_PCT
 L  ZMUNI4_PCT
 L  ZMUNI5_PCT
 L  ZMUNI6_PCT
 L  ZMUNI7_PCT
 L  ZMUNI8_PCT
 L  ZMUNI9_PCT
COLUMNS
    QMUNI1 OBJROW 1.          
    QMUNI1 ZMUNI1_PCT 30658.7219  
    QMUNI1 ZMUNI2_PCT 2254.4861   
    QMUNI1 ZMUNI3_PCT 4683.4946   
    QMUNI1 ZMUNI4_PCT 3797.3404   
    QMUNI1 ZMUNI5_PCT 874.9008    
    QMUNI1 ZMUNI6_PCT 990.4861    
    QMUNI1 ZMUNI7_PCT 3102.8747   
    QMUNI1 ZMUNI8_PCT 2408.2183   
    QMUNI1 ZMUNI9_PCT 1691.4368   
    QMUNI2 OBJROW 1.          
    QMUNI2 ZMUNI1_PCT 2148.2468   
    QMUNI2 ZMUNI2_PCT 37094.3069  
    QMUNI2 ZMUNI3_PCT 2970.314    
    QMUNI2 ZMUNI4_PCT 3326.6068   
    QMUNI2 ZMUNI5_PCT 705.1468    
    QMUNI2 ZMUNI6_PCT 741.9586    
    QMUNI2 ZMUNI7_PCT 2246.8567   
    QMUNI2 ZMUNI8_PCT 2375.4119   
    QMUNI2 ZMUNI9_PCT 2724.8383   
    QMUNI3 OBJROW 1.          
    QMUNI3 ZMUNI1_PCT 4244.8044   
    QMUNI3 ZMUNI2_PCT 2711.1053   
    QMUNI3 ZMUNI3_PCT 31861.3053  
    QMUNI3 ZMUNI4_PCT 5630.8747   
    QMUNI3 ZMUNI5_PCT 499.9161    
    QMUNI3 ZMUNI6_PCT 563.24      
    QMUNI3 ZMUNI7_PCT 2040.863    
    QMUNI3 ZMUNI8_PCT 1684.5703   
    QMUNI3 ZMUNI9_PCT 868.2251    
    QMUNI4 OBJROW 1.          
    QMUNI4 ZMUNI1_PCT 3219.223    
    QMUNI4 ZMUNI2_PCT 2988.6246   
    QMUNI4 ZMUNI3_PCT 5424.3088   
    QMUNI4 ZMUNI4_PCT 123958.3969 
    QMUNI4 ZMUNI5_PCT 0.9537      
    QMUNI4 ZMUNI6_PCT 133.1329    
    QMUNI4 ZMUNI7_PCT 1460.6475   
    QMUNI4 ZMUNI8_PCT 1263.4277   
    QMUNI4 ZMUNI9_PCT 556.5644    
    QMUNI5 OBJROW 1.          
    QMUNI5 ZMUNI1_PCT 87.5473     
    QMUNI5 ZMUNI2_PCT  -59.8908   
    QMUNI5 ZMUNI3_PCT 13.9237     
    QMUNI5 ZMUNI4_PCT  -31.2805   
    QMUNI5 ZMUNI5_PCT 40438.8428  
    QMUNI5 ZMUNI6_PCT 2803.6117   
    QMUNI5 ZMUNI7_PCT 174.3316    
    QMUNI5 ZMUNI8_PCT 4.1961000001
    QMUNI5 ZMUNI9_PCT  -67.5201   
    QMUNI6 OBJROW 1.          
    QMUNI6 ZMUNI1_PCT  -32.9971   
    QMUNI6 ZMUNI2_PCT  -285.7208  
    QMUNI6 ZMUNI3_PCT  -134.6588  
    QMUNI6 ZMUNI4_PCT  -169.9447  
    QMUNI6 ZMUNI5_PCT 2748.2987   
    QMUNI6 ZMUNI6_PCT 34509.2773  
    QMUNI6 ZMUNI7_PCT  -270.0806  
    QMUNI6 ZMUNI8_PCT  -534.0577  
    QMUNI6 ZMUNI9_PCT  -973.5107  
    QMUNI7 OBJROW 1.          
    QMUNI7 ZMUNI1_PCT 1613.9984   
    QMUNI7 ZMUNI2_PCT 1086.4258   
    QMUNI7 ZMUNI3_PCT 1452.8275   
    QMUNI7 ZMUNI4_PCT 1197.052    
    QMUNI7 ZMUNI5_PCT 495.9106    
    QMUNI7 ZMUNI6_PCT 676.918     
    QMUNI7 ZMUNI7_PCT 39592.7429  
    QMUNI7 ZMUNI8_PCT 3392.0288   
    QMUNI7 ZMUNI9_PCT 1873.7793   
    QMUNI8 OBJROW 1.          
    QMUNI8 ZMUNI1_PCT 1439.8575   
    QMUNI8 ZMUNI2_PCT 1380.3482   
    QMUNI8 ZMUNI3_PCT 1472.0917   
    QMUNI8 ZMUNI4_PCT 1280.5939   
    QMUNI8 ZMUNI5_PCT 475.6928    
    QMUNI8 ZMUNI6_PCT 572.586     
    QMUNI8 ZMUNI7_PCT 3881.4544   
    QMUNI8 ZMUNI8_PCT 34620.6665  
    QMUNI8 ZMUNI9_PCT 2992.63     
    QMUNI9 OBJROW 1.          
    QMUNI9 ZMUNI1_PCT 431.0608    
    QMUNI9 ZMUNI2_PCT 753.0212    
    QMUNI9 ZMUNI3_PCT 511.9324    
    QMUNI9 ZMUNI4_PCT 476.4557    
    QMUNI9 ZMUNI5_PCT 270.462     
    QMUNI9 ZMUNI6_PCT 248.909     
    QMUNI9 ZMUNI7_PCT 756.073     
    QMUNI9 ZMUNI8_PCT 1205.0628   
    QMUNI9 ZMUNI9_PCT 35664.7492  
RHS
    RHS ZMUNI1_PCT  -1.95091497
    RHS ZMUNI2_PCT 1.3358110255
    RHS ZMUNI3_PCT -0.023116536
    RHS ZMUNI4_PCT 12.863742896
    RHS ZMUNI5_PCT 3.2955746559
    RHS ZMUNI6_PCT  -0.1035522 
    RHS ZMUNI7_PCT 1.0543218895
    RHS ZMUNI8_PCT 2.1773057786
    RHS ZMUNI9_PCT 5.1912812545
BOUNDS
 LO BOUND QMUNI1 -0.000621721
 UP BOUND QMUNI1      1.1e+10
 LO BOUND QMUNI2 -0.000390503
 UP BOUND QMUNI2      1.1e+10
 LO BOUND QMUNI3 -0.000488746
 UP BOUND QMUNI3      1.1e+10
 LO BOUND QMUNI4  -9.33776e-5
 UP BOUND QMUNI4      1.1e+10
 LO BOUND QMUNI5 -0.000222936
 UP BOUND QMUNI5      1.1e+10
 LO BOUND QMUNI6 -0.000420957
 UP BOUND QMUNI6      1.1e+10
 LO BOUND QMUNI7  -4.89204e-5
 UP BOUND QMUNI7      1.1e+10
 LO BOUND QMUNI8 -0.000157184
 UP BOUND QMUNI8      1.1e+10
 LO BOUND QMUNI9   -7.0368e-5
 UP BOUND QMUNI9      1.1e+10
ENDATA
